# Solution for model Scenatio_[1, 2, 3]
# Objective value = 1.7699999999999997e+02
y[1] 1
y[2] 0
y[3] 0
y[4] 0
y[5] 1
y[6] 0
w[1] 30
w[2] 0
w[3] 0
w[4] 0
w[5] 7
w[6] 0
x[1,1,1] 1
x[1,1,2] 1
x[1,1,3] 8.8888888888888884e-01
x[1,2,1] 0
x[1,2,2] 0
x[1,2,3] 0
x[1,3,1] 0
x[1,3,2] 0
x[1,3,3] 0
x[1,4,1] 0
x[1,4,2] 0
x[1,4,3] 0
x[1,5,1] 0
x[1,5,2] 0
x[1,5,3] 1.1111111111111116e-01
x[1,6,1] 0
x[1,6,2] 0
x[1,6,3] 0
x[2,1,1] 0
x[2,1,2] 2.2222222222222232e-01
x[2,1,3] 0
x[2,2,1] 0
x[2,2,2] 0
x[2,2,3] 0
x[2,3,1] 0
x[2,3,2] 0
x[2,3,3] 0
x[2,4,1] 0
x[2,4,2] 0
x[2,4,3] 0
x[2,5,1] 1
x[2,5,2] 7.7777777777777779e-01
x[2,5,3] 1
x[2,6,1] 0
x[2,6,2] 0
x[2,6,3] 0
x[3,1,1] 1
x[3,1,2] 1
x[3,1,3] 1
x[3,2,1] 0
x[3,2,2] 0
x[3,2,3] 0
x[3,3,1] 0
x[3,3,2] 0
x[3,3,3] 0
x[3,4,1] 0
x[3,4,2] 0
x[3,4,3] 0
x[3,5,1] 0
x[3,5,2] 0
x[3,5,3] 0
x[3,6,1] 0
x[3,6,2] 0
x[3,6,3] 0
x[4,1,1] 1
x[4,1,2] 1
x[4,1,3] 1
x[4,2,1] 0
x[4,2,2] 0
x[4,2,3] 0
x[4,3,1] 0
x[4,3,2] 0
x[4,3,3] 0
x[4,4,1] 0
x[4,4,2] 0
x[4,4,3] 0
x[4,5,1] 0
x[4,5,2] 0
x[4,5,3] 0
x[4,6,1] 0
x[4,6,2] 0
x[4,6,3] 0
x[5,1,1] 1
x[5,1,2] 1
x[5,1,3] 1
x[5,2,1] 0
x[5,2,2] 0
x[5,2,3] 0
x[5,3,1] 0
x[5,3,2] 0
x[5,3,3] 0
x[5,4,1] 0
x[5,4,2] 0
x[5,4,3] 0
x[5,5,1] 0
x[5,5,2] 0
x[5,5,3] 0
x[5,6,1] 0
x[5,6,2] 0
x[5,6,3] 0
